NAME : Tallinn short tour
COMMENT : O-Mopsi
TYPE : TSP
DIMENSION : 12
EDGE_WEIGHT_TYPE : HVS
NODE_COORD_SECTION
1 24.741008540779 59.434201086833
2 24.744243115989 59.436103023762
3 24.741100909317 59.435643695642
4 24.745525379051 59.437445804142
5 24.739373651184 59.433411092758
6 24.738747271797 59.435233317818
7 24.727078996445 59.432518336589
8 24.742012357123 59.435056124452
9 24.737133085495 59.434460087543
10 24.74678274787 59.436818418927
11 24.746432468269 59.436758823618
12 24.7412776 59.4347148
EOF